3 
4  59 
5  22 37 52 
6  07 22 37 52 
7  07 22 37 52 
8  07 22 37 52 
9  07 22 37 52 
10  07 22 37 52 
11  07 22 37 52 
12  07 22 37 52 
13  08 23 38 53 
14  08 23 38 53 
15  08 23 38 53 
16  08 23 38 53 
17  08 23 38 53 
18  08 23 38 53 
19  07 22 37 52 
20  07 22 37 52 
21  07 22 37 52 
22  13 28 43 58 
23 
0 
